c Random Network
p max    10      20
n         1  s
n        10  t
a       9       3      16
a       2       3       7
a       5       8       6
a       1       2      10
a       2       9      48
a       6       8      33
a       2       7      23
a       8       6      20
a       5       1       1
a       9      10      44
a      10       2      46
a      10       7      44
a       3       5      19
a      10       6      40
a       4       6      27
a       4      10       1
a       2      10      24
a       3       4      31
a       4       3      27
a       9       1      24
